p cnf 275 1215
-51 -6 -1 0
-51 6 1 0
51 -6 1 0
51 6 -1 0
-52 -7 -2 0
-52 7 2 0
52 -7 2 0
52 7 -2 0
-53 -8 -3 0
-53 8 3 0
53 -8 3 0
53 8 -3 0
-54 -9 -4 0
-54 9 4 0
54 -9 4 0
54 9 -4 0
-55 -10 -5 0
-55 10 5 0
55 -10 5 0
55 10 -5 0
-51 -52 0
-51 -53 0
-51 -54 0
-51 -55 0
-52 -53 0
-52 -54 0
-52 -55 0
-53 -54 0
-53 -55 0
-54 -55 0
51 52 53 54 55 0
-56 -11 -6 0
-56 11 6 0
56 -11 6 0
56 11 -6 0
-57 -12 -7 0
-57 12 7 0
57 -12 7 0
57 12 -7 0
-58 -13 -8 0
-58 13 8 0
58 -13 8 0
58 13 -8 0
-59 -14 -9 0
-59 14 9 0
59 -14 9 0
59 14 -9 0
-60 -15 -10 0
-60 15 10 0
60 -15 10 0
60 15 -10 0
-56 -57 0
-56 -58 0
-56 -59 0
-56 -60 0
-57 -58 0
-57 -59 0
-57 -60 0
-58 -59 0
-58 -60 0
-59 -60 0
56 57 58 59 60 0
-61 -16 -11 0
-61 16 11 0
61 -16 11 0
61 16 -11 0
-62 -17 -12 0
-62 17 12 0
62 -17 12 0
62 17 -12 0
-63 -18 -13 0
-63 18 13 0
63 -18 13 0
63 18 -13 0
-64 -19 -14 0
-64 19 14 0
64 -19 14 0
64 19 -14 0
-65 -20 -15 0
-65 20 15 0
65 -20 15 0
65 20 -15 0
-61 -62 0
-61 -63 0
-61 -64 0
-61 -65 0
-62 -63 0
-62 -64 0
-62 -65 0
-63 -64 0
-63 -65 0
-64 -65 0
61 62 63 64 65 0
-66 -21 -16 0
-66 21 16 0
66 -21 16 0
66 21 -16 0
-67 -22 -17 0
-67 22 17 0
67 -22 17 0
67 22 -17 0
-68 -23 -18 0
-68 23 18 0
68 -23 18 0
68 23 -18 0
-69 -24 -19 0
-69 24 19 0
69 -24 19 0
69 24 -19 0
-70 -25 -20 0
-70 25 20 0
70 -25 20 0
70 25 -20 0
-66 -67 0
-66 -68 0
-66 -69 0
-66 -70 0
-67 -68 0
-67 -69 0
-67 -70 0
-68 -69 0
-68 -70 0
-69 -70 0
66 67 68 69 70 0
-71 -26 -21 0
-71 26 21 0
71 -26 21 0
71 26 -21 0
-72 -27 -22 0
-72 27 22 0
72 -27 22 0
72 27 -22 0
-73 -28 -23 0
-73 28 23 0
73 -28 23 0
73 28 -23 0
-74 -29 -24 0
-74 29 24 0
74 -29 24 0
74 29 -24 0
-75 -30 -25 0
-75 30 25 0
75 -30 25 0
75 30 -25 0
-71 -72 0
-71 -73 0
-71 -74 0
-71 -75 0
-72 -73 0
-72 -74 0
-72 -75 0
-73 -74 0
-73 -75 0
-74 -75 0
71 72 73 74 75 0
-76 -31 -26 0
-76 31 26 0
76 -31 26 0
76 31 -26 0
-77 -32 -27 0
-77 32 27 0
77 -32 27 0
77 32 -27 0
-78 -33 -28 0
-78 33 28 0
78 -33 28 0
78 33 -28 0
-79 -34 -29 0
-79 34 29 0
79 -34 29 0
79 34 -29 0
-80 -35 -30 0
-80 35 30 0
80 -35 30 0
80 35 -30 0
-76 -77 0
-76 -78 0
-76 -79 0
-76 -80 0
-77 -78 0
-77 -79 0
-77 -80 0
-78 -79 0
-78 -80 0
-79 -80 0
76 77 78 79 80 0
-81 -36 -31 0
-81 36 31 0
81 -36 31 0
81 36 -31 0
-82 -37 -32 0
-82 37 32 0
82 -37 32 0
82 37 -32 0
-83 -38 -33 0
-83 38 33 0
83 -38 33 0
83 38 -33 0
-84 -39 -34 0
-84 39 34 0
84 -39 34 0
84 39 -34 0
-85 -40 -35 0
-85 40 35 0
85 -40 35 0
85 40 -35 0
-81 -82 0
-81 -83 0
-81 -84 0
-81 -85 0
-82 -83 0
-82 -84 0
-82 -85 0
-83 -84 0
-83 -85 0
-84 -85 0
81 82 83 84 85 0
-86 -41 -36 0
-86 41 36 0
86 -41 36 0
86 41 -36 0
-87 -42 -37 0
-87 42 37 0
87 -42 37 0
87 42 -37 0
-88 -43 -38 0
-88 43 38 0
88 -43 38 0
88 43 -38 0
-89 -44 -39 0
-89 44 39 0
89 -44 39 0
89 44 -39 0
-90 -45 -40 0
-90 45 40 0
90 -45 40 0
90 45 -40 0
-86 -87 0
-86 -88 0
-86 -89 0
-86 -90 0
-87 -88 0
-87 -89 0
-87 -90 0
-88 -89 0
-88 -90 0
-89 -90 0
86 87 88 89 90 0
-91 -46 -41 0
-91 46 41 0
91 -46 41 0
91 46 -41 0
-92 -47 -42 0
-92 47 42 0
92 -47 42 0
92 47 -42 0
-93 -48 -43 0
-93 48 43 0
93 -48 43 0
93 48 -43 0
-94 -49 -44 0
-94 49 44 0
94 -49 44 0
94 49 -44 0
-95 -50 -45 0
-95 50 45 0
95 -50 45 0
95 50 -45 0
-91 -92 0
-91 -93 0
-91 -94 0
-91 -95 0
-92 -93 0
-92 -94 0
-92 -95 0
-93 -94 0
-93 -95 0
-94 -95 0
91 92 93 94 95 0
-96 -11 -1 0
-96 11 1 0
96 -11 1 0
96 11 -1 0
-97 -12 -2 0
-97 12 2 0
97 -12 2 0
97 12 -2 0
-98 -13 -3 0
-98 13 3 0
98 -13 3 0
98 13 -3 0
-99 -14 -4 0
-99 14 4 0
99 -14 4 0
99 14 -4 0
-100 -15 -5 0
-100 15 5 0
100 -15 5 0
100 15 -5 0
96 97 98 99 100 0
-96 97 98 99 100 0
96 -97 98 99 100 0
96 97 -98 99 100 0
96 97 98 -99 100 0
96 97 98 99 -100 0
-101 -16 -6 0
-101 16 6 0
101 -16 6 0
101 16 -6 0
-102 -17 -7 0
-102 17 7 0
102 -17 7 0
102 17 -7 0
-103 -18 -8 0
-103 18 8 0
103 -18 8 0
103 18 -8 0
-104 -19 -9 0
-104 19 9 0
104 -19 9 0
104 19 -9 0
-105 -20 -10 0
-105 20 10 0
105 -20 10 0
105 20 -10 0
101 102 103 104 105 0
-101 102 103 104 105 0
101 -102 103 104 105 0
101 102 -103 104 105 0
101 102 103 -104 105 0
101 102 103 104 -105 0
-106 -16 -1 0
-106 16 1 0
106 -16 1 0
106 16 -1 0
-107 -17 -2 0
-107 17 2 0
107 -17 2 0
107 17 -2 0
-108 -18 -3 0
-108 18 3 0
108 -18 3 0
108 18 -3 0
-109 -19 -4 0
-109 19 4 0
109 -19 4 0
109 19 -4 0
-110 -20 -5 0
-110 20 5 0
110 -20 5 0
110 20 -5 0
106 107 108 109 110 0
-106 107 108 109 110 0
106 -107 108 109 110 0
106 107 -108 109 110 0
106 107 108 -109 110 0
106 107 108 109 -110 0
-111 -21 -11 0
-111 21 11 0
111 -21 11 0
111 21 -11 0
-112 -22 -12 0
-112 22 12 0
112 -22 12 0
112 22 -12 0
-113 -23 -13 0
-113 23 13 0
113 -23 13 0
113 23 -13 0
-114 -24 -14 0
-114 24 14 0
114 -24 14 0
114 24 -14 0
-115 -25 -15 0
-115 25 15 0
115 -25 15 0
115 25 -15 0
111 112 113 114 115 0
-111 112 113 114 115 0
111 -112 113 114 115 0
111 112 -113 114 115 0
111 112 113 -114 115 0
111 112 113 114 -115 0
-116 -21 -6 0
-116 21 6 0
116 -21 6 0
116 21 -6 0
-117 -22 -7 0
-117 22 7 0
117 -22 7 0
117 22 -7 0
-118 -23 -8 0
-118 23 8 0
118 -23 8 0
118 23 -8 0
-119 -24 -9 0
-119 24 9 0
119 -24 9 0
119 24 -9 0
-120 -25 -10 0
-120 25 10 0
120 -25 10 0
120 25 -10 0
116 117 118 119 120 0
-116 117 118 119 120 0
116 -117 118 119 120 0
116 117 -118 119 120 0
116 117 118 -119 120 0
116 117 118 119 -120 0
-121 -21 -1 0
-121 21 1 0
121 -21 1 0
121 21 -1 0
-122 -22 -2 0
-122 22 2 0
122 -22 2 0
122 22 -2 0
-123 -23 -3 0
-123 23 3 0
123 -23 3 0
123 23 -3 0
-124 -24 -4 0
-124 24 4 0
124 -24 4 0
124 24 -4 0
-125 -25 -5 0
-125 25 5 0
125 -25 5 0
125 25 -5 0
121 122 123 124 125 0
-121 122 123 124 125 0
121 -122 123 124 125 0
121 122 -123 124 125 0
121 122 123 -124 125 0
121 122 123 124 -125 0
-126 -26 -16 0
-126 26 16 0
126 -26 16 0
126 26 -16 0
-127 -27 -17 0
-127 27 17 0
127 -27 17 0
127 27 -17 0
-128 -28 -18 0
-128 28 18 0
128 -28 18 0
128 28 -18 0
-129 -29 -19 0
-129 29 19 0
129 -29 19 0
129 29 -19 0
-130 -30 -20 0
-130 30 20 0
130 -30 20 0
130 30 -20 0
126 127 128 129 130 0
-126 127 128 129 130 0
126 -127 128 129 130 0
126 127 -128 129 130 0
126 127 128 -129 130 0
126 127 128 129 -130 0
-131 -26 -11 0
-131 26 11 0
131 -26 11 0
131 26 -11 0
-132 -27 -12 0
-132 27 12 0
132 -27 12 0
132 27 -12 0
-133 -28 -13 0
-133 28 13 0
133 -28 13 0
133 28 -13 0
-134 -29 -14 0
-134 29 14 0
134 -29 14 0
134 29 -14 0
-135 -30 -15 0
-135 30 15 0
135 -30 15 0
135 30 -15 0
131 132 133 134 135 0
-131 132 133 134 135 0
131 -132 133 134 135 0
131 132 -133 134 135 0
131 132 133 -134 135 0
131 132 133 134 -135 0
-136 -26 -6 0
-136 26 6 0
136 -26 6 0
136 26 -6 0
-137 -27 -7 0
-137 27 7 0
137 -27 7 0
137 27 -7 0
-138 -28 -8 0
-138 28 8 0
138 -28 8 0
138 28 -8 0
-139 -29 -9 0
-139 29 9 0
139 -29 9 0
139 29 -9 0
-140 -30 -10 0
-140 30 10 0
140 -30 10 0
140 30 -10 0
136 137 138 139 140 0
-136 137 138 139 140 0
136 -137 138 139 140 0
136 137 -138 139 140 0
136 137 138 -139 140 0
136 137 138 139 -140 0
-141 -26 -1 0
-141 26 1 0
141 -26 1 0
141 26 -1 0
-142 -27 -2 0
-142 27 2 0
142 -27 2 0
142 27 -2 0
-143 -28 -3 0
-143 28 3 0
143 -28 3 0
143 28 -3 0
-144 -29 -4 0
-144 29 4 0
144 -29 4 0
144 29 -4 0
-145 -30 -5 0
-145 30 5 0
145 -30 5 0
145 30 -5 0
141 142 143 144 145 0
-141 142 143 144 145 0
141 -142 143 144 145 0
141 142 -143 144 145 0
141 142 143 -144 145 0
141 142 143 144 -145 0
-146 -31 -21 0
-146 31 21 0
146 -31 21 0
146 31 -21 0
-147 -32 -22 0
-147 32 22 0
147 -32 22 0
147 32 -22 0
-148 -33 -23 0
-148 33 23 0
148 -33 23 0
148 33 -23 0
-149 -34 -24 0
-149 34 24 0
149 -34 24 0
149 34 -24 0
-150 -35 -25 0
-150 35 25 0
150 -35 25 0
150 35 -25 0
146 147 148 149 150 0
-146 147 148 149 150 0
146 -147 148 149 150 0
146 147 -148 149 150 0
146 147 148 -149 150 0
146 147 148 149 -150 0
-151 -31 -16 0
-151 31 16 0
151 -31 16 0
151 31 -16 0
-152 -32 -17 0
-152 32 17 0
152 -32 17 0
152 32 -17 0
-153 -33 -18 0
-153 33 18 0
153 -33 18 0
153 33 -18 0
-154 -34 -19 0
-154 34 19 0
154 -34 19 0
154 34 -19 0
-155 -35 -20 0
-155 35 20 0
155 -35 20 0
155 35 -20 0
151 152 153 154 155 0
-151 152 153 154 155 0
151 -152 153 154 155 0
151 152 -153 154 155 0
151 152 153 -154 155 0
151 152 153 154 -155 0
-156 -31 -11 0
-156 31 11 0
156 -31 11 0
156 31 -11 0
-157 -32 -12 0
-157 32 12 0
157 -32 12 0
157 32 -12 0
-158 -33 -13 0
-158 33 13 0
158 -33 13 0
158 33 -13 0
-159 -34 -14 0
-159 34 14 0
159 -34 14 0
159 34 -14 0
-160 -35 -15 0
-160 35 15 0
160 -35 15 0
160 35 -15 0
156 157 158 159 160 0
-156 157 158 159 160 0
156 -157 158 159 160 0
156 157 -158 159 160 0
156 157 158 -159 160 0
156 157 158 159 -160 0
-161 -31 -6 0
-161 31 6 0
161 -31 6 0
161 31 -6 0
-162 -32 -7 0
-162 32 7 0
162 -32 7 0
162 32 -7 0
-163 -33 -8 0
-163 33 8 0
163 -33 8 0
163 33 -8 0
-164 -34 -9 0
-164 34 9 0
164 -34 9 0
164 34 -9 0
-165 -35 -10 0
-165 35 10 0
165 -35 10 0
165 35 -10 0
161 162 163 164 165 0
-161 162 163 164 165 0
161 -162 163 164 165 0
161 162 -163 164 165 0
161 162 163 -164 165 0
161 162 163 164 -165 0
-166 -31 -1 0
-166 31 1 0
166 -31 1 0
166 31 -1 0
-167 -32 -2 0
-167 32 2 0
167 -32 2 0
167 32 -2 0
-168 -33 -3 0
-168 33 3 0
168 -33 3 0
168 33 -3 0
-169 -34 -4 0
-169 34 4 0
169 -34 4 0
169 34 -4 0
-170 -35 -5 0
-170 35 5 0
170 -35 5 0
170 35 -5 0
166 167 168 169 170 0
-166 167 168 169 170 0
166 -167 168 169 170 0
166 167 -168 169 170 0
166 167 168 -169 170 0
166 167 168 169 -170 0
-171 -36 -26 0
-171 36 26 0
171 -36 26 0
171 36 -26 0
-172 -37 -27 0
-172 37 27 0
172 -37 27 0
172 37 -27 0
-173 -38 -28 0
-173 38 28 0
173 -38 28 0
173 38 -28 0
-174 -39 -29 0
-174 39 29 0
174 -39 29 0
174 39 -29 0
-175 -40 -30 0
-175 40 30 0
175 -40 30 0
175 40 -30 0
171 172 173 174 175 0
-171 172 173 174 175 0
171 -172 173 174 175 0
171 172 -173 174 175 0
171 172 173 -174 175 0
171 172 173 174 -175 0
-176 -36 -21 0
-176 36 21 0
176 -36 21 0
176 36 -21 0
-177 -37 -22 0
-177 37 22 0
177 -37 22 0
177 37 -22 0
-178 -38 -23 0
-178 38 23 0
178 -38 23 0
178 38 -23 0
-179 -39 -24 0
-179 39 24 0
179 -39 24 0
179 39 -24 0
-180 -40 -25 0
-180 40 25 0
180 -40 25 0
180 40 -25 0
176 177 178 179 180 0
-176 177 178 179 180 0
176 -177 178 179 180 0
176 177 -178 179 180 0
176 177 178 -179 180 0
176 177 178 179 -180 0
-181 -36 -16 0
-181 36 16 0
181 -36 16 0
181 36 -16 0
-182 -37 -17 0
-182 37 17 0
182 -37 17 0
182 37 -17 0
-183 -38 -18 0
-183 38 18 0
183 -38 18 0
183 38 -18 0
-184 -39 -19 0
-184 39 19 0
184 -39 19 0
184 39 -19 0
-185 -40 -20 0
-185 40 20 0
185 -40 20 0
185 40 -20 0
181 182 183 184 185 0
-181 182 183 184 185 0
181 -182 183 184 185 0
181 182 -183 184 185 0
181 182 183 -184 185 0
181 182 183 184 -185 0
-186 -36 -11 0
-186 36 11 0
186 -36 11 0
186 36 -11 0
-187 -37 -12 0
-187 37 12 0
187 -37 12 0
187 37 -12 0
-188 -38 -13 0
-188 38 13 0
188 -38 13 0
188 38 -13 0
-189 -39 -14 0
-189 39 14 0
189 -39 14 0
189 39 -14 0
-190 -40 -15 0
-190 40 15 0
190 -40 15 0
190 40 -15 0
186 187 188 189 190 0
-186 187 188 189 190 0
186 -187 188 189 190 0
186 187 -188 189 190 0
186 187 188 -189 190 0
186 187 188 189 -190 0
-191 -36 -6 0
-191 36 6 0
191 -36 6 0
191 36 -6 0
-192 -37 -7 0
-192 37 7 0
192 -37 7 0
192 37 -7 0
-193 -38 -8 0
-193 38 8 0
193 -38 8 0
193 38 -8 0
-194 -39 -9 0
-194 39 9 0
194 -39 9 0
194 39 -9 0
-195 -40 -10 0
-195 40 10 0
195 -40 10 0
195 40 -10 0
191 192 193 194 195 0
-191 192 193 194 195 0
191 -192 193 194 195 0
191 192 -193 194 195 0
191 192 193 -194 195 0
191 192 193 194 -195 0
-196 -36 -1 0
-196 36 1 0
196 -36 1 0
196 36 -1 0
-197 -37 -2 0
-197 37 2 0
197 -37 2 0
197 37 -2 0
-198 -38 -3 0
-198 38 3 0
198 -38 3 0
198 38 -3 0
-199 -39 -4 0
-199 39 4 0
199 -39 4 0
199 39 -4 0
-200 -40 -5 0
-200 40 5 0
200 -40 5 0
200 40 -5 0
196 197 198 199 200 0
-196 197 198 199 200 0
196 -197 198 199 200 0
196 197 -198 199 200 0
196 197 198 -199 200 0
196 197 198 199 -200 0
-201 -41 -31 0
-201 41 31 0
201 -41 31 0
201 41 -31 0
-202 -42 -32 0
-202 42 32 0
202 -42 32 0
202 42 -32 0
-203 -43 -33 0
-203 43 33 0
203 -43 33 0
203 43 -33 0
-204 -44 -34 0
-204 44 34 0
204 -44 34 0
204 44 -34 0
-205 -45 -35 0
-205 45 35 0
205 -45 35 0
205 45 -35 0
201 202 203 204 205 0
-201 202 203 204 205 0
201 -202 203 204 205 0
201 202 -203 204 205 0
201 202 203 -204 205 0
201 202 203 204 -205 0
-206 -41 -26 0
-206 41 26 0
206 -41 26 0
206 41 -26 0
-207 -42 -27 0
-207 42 27 0
207 -42 27 0
207 42 -27 0
-208 -43 -28 0
-208 43 28 0
208 -43 28 0
208 43 -28 0
-209 -44 -29 0
-209 44 29 0
209 -44 29 0
209 44 -29 0
-210 -45 -30 0
-210 45 30 0
210 -45 30 0
210 45 -30 0
206 207 208 209 210 0
-206 207 208 209 210 0
206 -207 208 209 210 0
206 207 -208 209 210 0
206 207 208 -209 210 0
206 207 208 209 -210 0
-211 -41 -21 0
-211 41 21 0
211 -41 21 0
211 41 -21 0
-212 -42 -22 0
-212 42 22 0
212 -42 22 0
212 42 -22 0
-213 -43 -23 0
-213 43 23 0
213 -43 23 0
213 43 -23 0
-214 -44 -24 0
-214 44 24 0
214 -44 24 0
214 44 -24 0
-215 -45 -25 0
-215 45 25 0
215 -45 25 0
215 45 -25 0
211 212 213 214 215 0
-211 212 213 214 215 0
211 -212 213 214 215 0
211 212 -213 214 215 0
211 212 213 -214 215 0
211 212 213 214 -215 0
-216 -41 -16 0
-216 41 16 0
216 -41 16 0
216 41 -16 0
-217 -42 -17 0
-217 42 17 0
217 -42 17 0
217 42 -17 0
-218 -43 -18 0
-218 43 18 0
218 -43 18 0
218 43 -18 0
-219 -44 -19 0
-219 44 19 0
219 -44 19 0
219 44 -19 0
-220 -45 -20 0
-220 45 20 0
220 -45 20 0
220 45 -20 0
216 217 218 219 220 0
-216 217 218 219 220 0
216 -217 218 219 220 0
216 217 -218 219 220 0
216 217 218 -219 220 0
216 217 218 219 -220 0
-221 -41 -11 0
-221 41 11 0
221 -41 11 0
221 41 -11 0
-222 -42 -12 0
-222 42 12 0
222 -42 12 0
222 42 -12 0
-223 -43 -13 0
-223 43 13 0
223 -43 13 0
223 43 -13 0
-224 -44 -14 0
-224 44 14 0
224 -44 14 0
224 44 -14 0
-225 -45 -15 0
-225 45 15 0
225 -45 15 0
225 45 -15 0
221 222 223 224 225 0
-221 222 223 224 225 0
221 -222 223 224 225 0
221 222 -223 224 225 0
221 222 223 -224 225 0
221 222 223 224 -225 0
-226 -41 -6 0
-226 41 6 0
226 -41 6 0
226 41 -6 0
-227 -42 -7 0
-227 42 7 0
227 -42 7 0
227 42 -7 0
-228 -43 -8 0
-228 43 8 0
228 -43 8 0
228 43 -8 0
-229 -44 -9 0
-229 44 9 0
229 -44 9 0
229 44 -9 0
-230 -45 -10 0
-230 45 10 0
230 -45 10 0
230 45 -10 0
226 227 228 229 230 0
-226 227 228 229 230 0
226 -227 228 229 230 0
226 227 -228 229 230 0
226 227 228 -229 230 0
226 227 228 229 -230 0
-231 -41 -1 0
-231 41 1 0
231 -41 1 0
231 41 -1 0
-232 -42 -2 0
-232 42 2 0
232 -42 2 0
232 42 -2 0
-233 -43 -3 0
-233 43 3 0
233 -43 3 0
233 43 -3 0
-234 -44 -4 0
-234 44 4 0
234 -44 4 0
234 44 -4 0
-235 -45 -5 0
-235 45 5 0
235 -45 5 0
235 45 -5 0
231 232 233 234 235 0
-231 232 233 234 235 0
231 -232 233 234 235 0
231 232 -233 234 235 0
231 232 233 -234 235 0
231 232 233 234 -235 0
-236 -46 -36 0
-236 46 36 0
236 -46 36 0
236 46 -36 0
-237 -47 -37 0
-237 47 37 0
237 -47 37 0
237 47 -37 0
-238 -48 -38 0
-238 48 38 0
238 -48 38 0
238 48 -38 0
-239 -49 -39 0
-239 49 39 0
239 -49 39 0
239 49 -39 0
-240 -50 -40 0
-240 50 40 0
240 -50 40 0
240 50 -40 0
236 237 238 239 240 0
-236 237 238 239 240 0
236 -237 238 239 240 0
236 237 -238 239 240 0
236 237 238 -239 240 0
236 237 238 239 -240 0
-241 -46 -31 0
-241 46 31 0
241 -46 31 0
241 46 -31 0
-242 -47 -32 0
-242 47 32 0
242 -47 32 0
242 47 -32 0
-243 -48 -33 0
-243 48 33 0
243 -48 33 0
243 48 -33 0
-244 -49 -34 0
-244 49 34 0
244 -49 34 0
244 49 -34 0
-245 -50 -35 0
-245 50 35 0
245 -50 35 0
245 50 -35 0
241 242 243 244 245 0
-241 242 243 244 245 0
241 -242 243 244 245 0
241 242 -243 244 245 0
241 242 243 -244 245 0
241 242 243 244 -245 0
-246 -46 -26 0
-246 46 26 0
246 -46 26 0
246 46 -26 0
-247 -47 -27 0
-247 47 27 0
247 -47 27 0
247 47 -27 0
-248 -48 -28 0
-248 48 28 0
248 -48 28 0
248 48 -28 0
-249 -49 -29 0
-249 49 29 0
249 -49 29 0
249 49 -29 0
-250 -50 -30 0
-250 50 30 0
250 -50 30 0
250 50 -30 0
246 247 248 249 250 0
-246 247 248 249 250 0
246 -247 248 249 250 0
246 247 -248 249 250 0
246 247 248 -249 250 0
246 247 248 249 -250 0
-251 -46 -21 0
-251 46 21 0
251 -46 21 0
251 46 -21 0
-252 -47 -22 0
-252 47 22 0
252 -47 22 0
252 47 -22 0
-253 -48 -23 0
-253 48 23 0
253 -48 23 0
253 48 -23 0
-254 -49 -24 0
-254 49 24 0
254 -49 24 0
254 49 -24 0
-255 -50 -25 0
-255 50 25 0
255 -50 25 0
255 50 -25 0
251 252 253 254 255 0
-251 252 253 254 255 0
251 -252 253 254 255 0
251 252 -253 254 255 0
251 252 253 -254 255 0
251 252 253 254 -255 0
-256 -46 -16 0
-256 46 16 0
256 -46 16 0
256 46 -16 0
-257 -47 -17 0
-257 47 17 0
257 -47 17 0
257 47 -17 0
-258 -48 -18 0
-258 48 18 0
258 -48 18 0
258 48 -18 0
-259 -49 -19 0
-259 49 19 0
259 -49 19 0
259 49 -19 0
-260 -50 -20 0
-260 50 20 0
260 -50 20 0
260 50 -20 0
256 257 258 259 260 0
-256 257 258 259 260 0
256 -257 258 259 260 0
256 257 -258 259 260 0
256 257 258 -259 260 0
256 257 258 259 -260 0
-261 -46 -11 0
-261 46 11 0
261 -46 11 0
261 46 -11 0
-262 -47 -12 0
-262 47 12 0
262 -47 12 0
262 47 -12 0
-263 -48 -13 0
-263 48 13 0
263 -48 13 0
263 48 -13 0
-264 -49 -14 0
-264 49 14 0
264 -49 14 0
264 49 -14 0
-265 -50 -15 0
-265 50 15 0
265 -50 15 0
265 50 -15 0
261 262 263 264 265 0
-261 262 263 264 265 0
261 -262 263 264 265 0
261 262 -263 264 265 0
261 262 263 -264 265 0
261 262 263 264 -265 0
-266 -46 -6 0
-266 46 6 0
266 -46 6 0
266 46 -6 0
-267 -47 -7 0
-267 47 7 0
267 -47 7 0
267 47 -7 0
-268 -48 -8 0
-268 48 8 0
268 -48 8 0
268 48 -8 0
-269 -49 -9 0
-269 49 9 0
269 -49 9 0
269 49 -9 0
-270 -50 -10 0
-270 50 10 0
270 -50 10 0
270 50 -10 0
266 267 268 269 270 0
-266 267 268 269 270 0
266 -267 268 269 270 0
266 267 -268 269 270 0
266 267 268 -269 270 0
266 267 268 269 -270 0
-271 -46 -1 0
-271 46 1 0
271 -46 1 0
271 46 -1 0
-272 -47 -2 0
-272 47 2 0
272 -47 2 0
272 47 -2 0
-273 -48 -3 0
-273 48 3 0
273 -48 3 0
273 48 -3 0
-274 -49 -4 0
-274 49 4 0
274 -49 4 0
274 49 -4 0
-275 -50 -5 0
-275 50 5 0
275 -50 5 0
275 50 -5 0
271 272 273 274 275 0
-271 272 273 274 275 0
271 -272 273 274 275 0
271 272 -273 274 275 0
271 272 273 -274 275 0
271 272 273 274 -275 0
